1 1
2 2
3 2
4 1
5 1
6 2
7 2
8 1
9 2
10 1
11 2
12 1
13 2
14 2
15 2
16 2
17 1
18 2
19 2
20 2
21 1
22 2
23 1
24 2
25 2
26 2
27 2
28 2
29 2
30 2
31 2
32 1
33 2
34 1
35 1
36 2
37 1
38 2
39 2
40 2
41 2
42 1
43 1
44 2
45 2
46 2
47 1
48 2
49 1
50 1
51 2
52 1
53 2
54 2
55 1
56 2
57 1
58 1
59 2
60 2
61 1
62 1
63 2
64 1
65 1
66 2
67 1
68 2
69 2
70 2
71 1
72 1
73 2
74 2
75 2
76 1
77 2
78 1
79 2
80 2
81 2
82 1
83 2
84 1
85 2
86 2
87 2
88 1
89 2
90 2
91 1
92 1
93 1
94 1
95 2
96 2
97 1
98 1
99 1
100 1
101 1
102 2
103 1
104 2
105 2
106 2
107 2
108 1
109 1
110 2
111 2
112 2
113 2
114 2
115 2
116 2
117 2
118 2
119 2
120 1
121 1
122 1
123 2
124 2
125 2
126 1
127 1
128 2
129 1
130 2
131 1
132 1
133 2
134 1
135 2
136 2
137 1
138 1
139 1
140 1
141 1
142 1
143 1
144 2
145 2
146 2
147 1
148 2
149 2
150 1
151 2
152 2
153 2
154 2
155 2
156 2
157 1
158 2
159 1
160 1
161 2
162 1
163 1
164 2
165 2
166 1
167 1
168 2
169 1
170 2
171 1
172 2
173 2
174 2
175 1
176 1
177 1
178 2
179 1
180 1
181 1
182 1
183 2
184 2
185 1
186 2
187 1
188 2
189 2
190 1
191 2
192 1
193 2
194 2
195 1
196 1
197 2
198 1
199 1
200 1
201 2
202 1
203 2
204 2
205 2
206 2
207 1
208 2
209 2
210 1
211 2
212 1
213 2
214 2
215 1
216 2
217 1
218 2
219 1
220 1
221 2
222 2
223 2
224 2
225 2
226 1
227 1
228 1
229 2
230 2
231 2
232 2
233 2
234 2
235 1
236 1
237 2
238 2
239 2
240 1
241 2
242 1
243 2
244 2
245 2
246 1
247 1
248 2
249 1
250 2
251 2
252 2
253 2
254 2
255 1
256 2
257 1
258 2
259 1
260 2
261 1
262 2
263 1
264 2
265 2
266 1
267 2
268 2
269 1
270 2
271 2
272 2
273 2
274 2
275 1
276 1
277 1
278 1
279 1
280 1
281 2
282 1
283 1
284 1
285 1
286 1
287 2
288 1
289 1
290 2
291 1
292 2
293 2
294 2
295 2
296 1
297 1
298 2
299 2
300 1
301 1
302 1
303 1
304 2
305 1
306 1
307 1
308 2
309 2
310 2
311 2
312 2
313 2
314 1
315 2
316 2
317 2
318 2
319 2
320 1
321 1
322 1
323 1
324 2
325 1
326 2
327 2
328 2
329 1
330 2
331 2
332 2
333 1
334 2
335 1
336 1
337 2
338 1
339 1
340 2
341 2
342 1
343 1
344 2
345 2
346 1
347 2
348 1
349 2
350 2
351 2
352 2
353 1
354 1
355 2
356 2
357 1
358 2
359 2
360 2
361 1
362 1
363 1
364 1
365 2
366 1
367 1
368 1
369 2
370 1
371 2
372 1
373 1
374 2
375 1
376 2
377 1
378 2
379 2
380 2
381 1
382 2
383 1
384 2
385 2
386 2
387 2
388 1
389 2
390 1
391 1
392 1
393 1
394 1
395 1
396 1
397 2
398 2
399 1
400 2
401 1
402 1
403 1
404 2
405 1
406 1
407 2
408 2
409 2
410 1
411 2
412 2
413 1
414 1
415 2
416 2
417 1
418 1
419 2
420 1
421 1
422 2
423 1
424 2
425 2
426 2
427 1
428 2
429 1
430 1
431 1
432 1
433 2
434 1
435 1
436 1
437 1
438 1
439 1
440 1
441 1
442 1
443 1
444 1
445 1
446 2
447 2
448 1
449 2
450 2
451 1
452 2
453 1
454 2
455 2
456 2
457 1
458 2
459 1
460 2
461 2
462 1
463 1
464 1
465 1
466 1
467 1
468 2
469 2
470 1
471 1
472 1
473 1
474 1
475 1
476 2
477 2
478 2
479 2
480 1
481 2
482 2
483 2
484 1
485 2
486 2
487 1
488 1
489 1
490 2
491 2
492 1
493 1
494 2
495 1
496 1
497 1
498 1
499 1
500 2
